DIMACS2
20 82 60 147 39 73 66 109 52 131 40 80 9 137 107 100 37 148 154 99 72
p edge 160 644
e 0 59 1.0
e 0 43 1.0
e 0 96 1.0
e 0 135 1.0
e 1 143 1.0
e 1 0 2.0
e 1 17 2.0
e 1 78 1.0
e 2 134 2.0
e 2 147 7.0
e 2 157 1.0
e 2 34 2.0
e 3 37 9.0
e 3 73 3.0
e 3 105 1.0
e 3 17 1.0
e 4 41 1.0
e 4 0 1.0
e 4 43 1.0
e 4 82 46.0
e 5 60 49.0
e 5 149 1.0
e 5 1 2.0
e 5 100 29.0
e 6 128 2.0
e 6 117 1.0
e 6 47 2.0
e 6 147 49.0
e 7 158 2.0
e 7 89 1.0
e 7 131 38.0
e 7 11 1.0
e 8 69 1.0
e 8 19 1.0
e 8 49 1.0
e 8 141 1.0
e 9 41 39.0
e 9 142 22.0
e 9 134 16.0
e 9 68 1.0
e 9 66 42.0
e 9 72 41.0
e 9 107 47.0
e 10 155 1.0
e 10 60 44.0
e 10 51 1.0
e 10 123 2.0
e 11 91 1.0
e 11 58 1.0
e 11 122 1.0
e 11 74 1.0
e 12 147 14.0
e 12 88 1.0
e 12 59 2.0
e 12 87 1.0
e 13 157 1.0
e 13 55 1.0
e 13 87 2.0
e 13 133 1.0
e 14 19 1.0
e 14 153 1.0
e 14 22 2.0
e 14 54 1.0
e 15 130 1.0
e 15 110 1.0
e 15 2 2.0
e 15 151 1.0
e 16 14 1.0
e 16 84 2.0
e 16 112 1.0
e 16 158 2.0
e 17 36 1.0
e 17 8 1.0
e 17 118 1.0
e 17 148 28.0
e 18 148 28.0
e 18 114 1.0
e 18 24 1.0
e 18 96 2.0
e 19 6 1.0
e 19 24 1.0
e 19 12 2.0
e 19 81 1.0
e 20 88 1.0
e 20 120 2.0
e 20 83 1.0
e 20 57 1.0
e 21 141 1.0
e 21 81 1.0
e 21 46 1.0
e 21 117 1.0
e 22 104 1.0
e 22 31 1.0
e 22 153 2.0
e 22 149 2.0
e 23 109 35.0
e 23 34 1.0
e 23 90 1.0
e 23 40 26.0
e 24 143 2.0
e 24 20 1.0
e 24 114 1.0
e 24 147 38.0
e 25 158 1.0
e 25 85 1.0
e 25 126 1.0
e 25 40 17.0
e 26 117 1.0
e 26 134 1.0
e 26 150 1.0
e 26 62 1.0
e 27 56 2.0
e 27 37 42.0
e 27 124 2.0
e 27 120 2.0
e 28 151 1.0
e 28 71 1.0
e 28 0 1.0
e 28 67 2.0
e 29 140 1.0
e 29 91 1.0
e 29 14 1.0
e 29 89 1.0
e 30 31 1.0
e 30 110 2.0
e 30 76 1.0
e 30 82 14.0
e 31 75 2.0
e 31 44 2.0
e 31 18 2.0
e 31 60 5.0
e 32 149 1.0
e 32 55 1.0
e 32 44 1.0
e 32 72 36.0
e 33 110 1.0
e 33 49 1.0
e 33 43 3.0
e 33 125 1.0
e 34 54 1.0
e 34 131 7.0
e 34 16 1.0
e 34 41 1.0
e 35 84 2.0
e 35 134 1.0
e 35 0 2.0
e 36 75 1.0
e 36 79 1.0
e 36 35 1.0
e 36 155 1.0
e 37 18 1.0
e 37 150 1.0
e 37 77 36.0
e 37 85 25.0
e 38 144 2.0
e 38 93 1.0
e 38 132 2.0
e 38 96 2.0
e 39 61 42.0
e 39 27 3.0
e 39 119 16.0
e 39 141 6.0
e 39 107 16.0
e 39 9 38.0
e 40 99 47.0
e 40 90 4.0
e 40 148 8.0
e 40 39 11.0
e 41 64 1.0
e 41 47 1.0
e 41 17 2.0
e 41 153 1.0
e 42 62 1.0
e 42 99 38.0
e 42 37 16.0
e 42 10 1.0
e 43 47 1.0
e 43 54 1.0
e 43 76 1.0
e 43 85 1.0
e 44 104 1.0
e 44 76 1.0
e 44 61 2.0
e 44 127 1.0
e 45 86 2.0
e 45 120 1.0
e 45 15 2.0
e 45 121 1.0
e 46 72 29.0
e 46 73 7.0
e 46 24 1.0
e 46 35 1.0
e 47 115 1.0
e 47 151 1.0
e 47 101 1.0
e 47 60 44.0
e 48 121 2.0
e 48 64 1.0
e 48 0 1.0
e 48 94 1.0
e 49 9 46.0
e 49 40 34.0
e 49 134 1.0
e 49 142 1.0
e 50 82 48.0
e 50 14 2.0
e 50 122 1.0
e 50 101 2.0
e 51 54 2.0
e 51 114 1.0
e 51 46 1.0
e 51 70 1.0
e 52 33 11.0
e 52 16 10.0
e 52 20 37.0
e 52 135 24.0
e 52 137 4.0
e 52 37 5.0
e 52 39 7.0
e 52 148 27.0
e 52 66 17.0
e 53 27 1.0
e 53 48 2.0
e 53 40 19.0
e 53 97 2.0
e 54 62 1.0
e 54 122 2.0
e 54 80 42.0
e 54 75 1.0
e 55 97 1.0
e 55 114 2.0
e 55 57 2.0
e 55 132 1.0
e 56 123 1.0
e 56 82 48.0
e 56 76 2.0
e 56 62 2.0
e 57 115 1.0
e 57 41 1.0
e 57 105 1.0
e 57 154 5.0
e 58 87 1.0
e 58 88 1.0
e 58 113 1.0
e 58 4 1.0
e 59 130 1.0
e 59 16 1.0
e 59 31 1.0
e 59 25 1.0
e 60 127 7.0
e 60 107 10.0
e 60 28 13.0
e 60 126 20.0
e 61 122 1.0
e 61 22 1.0
e 61 45 1.0
e 61 114 2.0
e 62 40 42.0
e 62 71 1.0
e 62 120 2.0
e 62 132 1.0
e 63 19 1.0
e 63 32 1.0
e 63 109 14.0
e 63 29 1.0
e 64 31 1.0
e 64 26 1.0
e 64 101 2.0
e 64 87 1.0
e 65 63 1.0
e 65 139 1.0
e 65 116 1.0
e 65 87 1.0
e 66 158 29.0
e 66 20 18.0
e 66 134 34.0
e 66 126 6.0
e 66 154 30.0
e 67 144 2.0
e 67 139 1.0
e 67 91 1.0
e 67 6 1.0
e 68 142 1.0
e 68 114 1.0
e 68 75 1.0
e 68 72 2.0
e 69 153 1.0
e 69 100 35.0
e 69 143 2.0
e 69 11 1.0
e 70 62 1.0
e 70 93 1.0
e 70 40 5.0
e 71 120 2.0
e 71 149 1.0
e 71 116 2.0
e 71 78 2.0
e 72 106 15.0
e 72 154 12.0
e 72 4 14.0
e 72 74 40.0
e 72 99 41.0
e 73 130 1.0
e 73 41 43.0
e 73 135 35.0
e 73 39 14.0
e 73 52 20.0
e 74 137 43.0
e 74 151 3.0
e 74 158 1.0
e 75 158 1.0
e 75 92 1.0
e 75 28 2.0
e 75 77 1.0
e 76 84 1.0
e 76 47 1.0
e 76 103 1.0
e 76 135 1.0
e 77 74 1.0
e 77 7 2.0
e 77 118 1.0
e 78 154 14.0
e 78 45 2.0
e 78 7 1.0
e 78 90 2.0
e 79 15 1.0
e 79 108 1.0
e 79 132 1.0
e 79 122 1.0
e 80 142 22.0
e 80 65 44.0
e 80 1 46.0
e 80 26 38.0
e 80 137 8.0
e 80 66 29.0
e 81 125 1.0
e 81 87 1.0
e 81 140 1.0
e 81 67 1.0
e 82 41 45.0
e 82 47 28.0
e 82 35 33.0
e 82 137 17.0
e 83 95 1.0
e 83 48 1.0
e 83 51 1.0
e 83 84 1.0
e 84 102 1.0
e 84 55 1.0
e 84 157 1.0
e 84 42 1.0
e 85 67 1.0
e 85 124 2.0
e 85 109 31.0
e 85 5 1.0
e 86 107 2.0
e 86 150 1.0
e 86 58 2.0
e 86 123 1.0
e 87 69 1.0
e 87 62 1.0
e 87 122 1.0
e 87 140 1.0
e 88 104 1.0
e 88 59 1.0
e 88 118 1.0
e 89 134 1.0
e 89 116 1.0
e 89 59 1.0
e 89 54 1.0
e 90 60 18.0
e 90 85 1.0
e 90 59 1.0
e 90 81 1.0
e 91 2 2.0
e 91 157 1.0
e 91 30 1.0
e 91 15 1.0
e 92 111 2.0
e 92 82 21.0
e 92 117 1.0
e 92 122 1.0
e 93 62 1.0
e 93 12 1.0
e 93 53 2.0
e 93 74 1.0
e 94 92 1.0
e 94 122 1.0
e 94 27 1.0
e 94 37 15.0
e 95 45 1.0
e 95 74 1.0
e 95 81 1.0
e 95 134 1.0
e 96 113 1.0
e 96 31 2.0
e 96 100 49.0
e 96 44 2.0
e 97 95 1.0
e 97 61 1.0
e 97 92 2.0
e 98 25 1.0
e 98 108 1.0
e 98 8 1.0
e 98 146 2.0
e 99 115 21.0
e 99 24 34.0
e 99 154 36.0
e 99 136 35.0
e 100 120 43.0
e 100 142 3.0
e 100 66 39.0
e 100 22 29.0
e 100 72 28.0
e 101 158 1.0
e 101 8 1.0
e 101 122 1.0
e 101 96 2.0
e 102 126 1.0
e 102 119 1.0
e 102 105 1.0
e 102 53 2.0
e 103 16 2.0
e 103 60 15.0
e 103 41 1.0
e 103 109 8.0
e 104 101 1.0
e 104 63 1.0
e 104 73 43.0
e 104 6 2.0
e 105 84 1.0
e 105 14 1.0
e 105 130 2.0
e 105 86 1.0
e 106 69 1.0
e 106 54 1.0
e 106 60 25.0
e 106 150 1.0
e 107 25 38.0
e 107 139 29.0
e 107 69 6.0
e 107 21 1.0
e 108 137 47.0
e 108 11 1.0
e 108 146 2.0
e 108 27 3.0
e 109 89 15.0
e 109 126 22.0
e 109 152 35.0
e 109 8 1.0
e 110 48 2.0
e 110 36 1.0
e 110 124 2.0
e 110 109 38.0
e 111 50 2.0
e 111 80 29.0
e 111 105 1.0
e 111 109 3.0
e 112 34 2.0
e 112 75 2.0
e 112 60 21.0
e 112 46 1.0
e 113 76 1.0
e 113 28 2.0
e 113 49 1.0
e 113 14 1.0
e 114 25 1.0
e 114 49 1.0
e 114 128 1.0
e 114 147 11.0
e 115 23 1.0
e 115 119 1.0
e 115 148 3.0
e 115 156 1.0
e 116 108 2.0
e 116 131 16.0
e 116 61 1.0
e 116 18 1.0
e 117 23 1.0
e 117 109 8.0
e 117 143 1.0
e 117 120 2.0
e 118 133 1.0
e 118 86 2.0
e 118 102 1.0
e 118 51 1.0
e 119 57 2.0
e 119 95 1.0
e 119 9 13.0
e 119 55 1.0
e 120 143 1.0
e 120 50 1.0
e 120 122 2.0
e 120 21 1.0
e 121 54 2.0
e 121 39 10.0
e 121 26 1.0
e 121 34 2.0
e 122 0 1.0
e 122 15 1.0
e 122 63 2.0
e 122 132 2.0
e 123 119 1.0
e 123 21 2.0
e 123 50 2.0
e 123 108 1.0
e 124 101 1.0
e 124 103 2.0
e 124 13 1.0
e 124 6 1.0
e 125 48 1.0
e 125 92 1.0
e 125 36 1.0
e 125 88 1.0
e 126 147 8.0
e 126 144 2.0
e 126 75 1.0
e 126 131 9.0
e 127 45 1.0
e 127 104 2.0
e 127 10 1.0
e 127 77 1.0
e 128 23 1.0
e 128 35 1.0
e 128 143 1.0
e 129 89 1.0
e 129 132 1.0
e 129 58 1.0
e 129 128 1.0
e 130 24 1.0
e 130 25 1.0
e 130 29 2.0
e 130 54 1.0
e 131 146 35.0
e 131 10 45.0
e 131 158 41.0
e 131 32 1.0
e 132 28 3.0
e 132 70 1.0
e 132 99 25.0
e 132 119 2.0
e 133 11 1.0
e 133 56 2.0
e 133 32 1.0
e 134 22 1.0
e 134 87 1.0
e 134 41 1.0
e 135 107 1.0
e 135 16 1.0
e 135 120 2.0
e 136 40 41.0
e 136 117 1.0
e 136 45 1.0
e 136 20 1.0
e 137 62 36.0
e 137 8 39.0
e 137 119 12.0
e 137 10 26.0
e 138 131 34.0
e 138 0 1.0
e 138 102 1.0
e 138 8 1.0
e 139 148 9.0
e 139 87 1.0
e 139 84 1.0
e 139 53 2.0
e 140 28 1.0
e 140 119 1.0
e 140 60 41.0
e 140 80 10.0
e 141 81 1.0
e 141 17 2.0
e 141 111 2.0
e 141 12 2.0
e 142 4 1.0
e 142 154 43.0
e 142 69 1.0
e 142 62 1.0
e 143 12 1.0
e 143 153 1.0
e 143 17 1.0
e 143 99 15.0
e 144 121 2.0
e 144 102 1.0
e 144 40 13.0
e 144 92 1.0
e 145 89 2.0
e 145 50 2.0
e 145 70 1.0
e 145 16 2.0
e 146 142 2.0
e 146 3 2.0
e 146 150 2.0
e 146 47 2.0
e 147 25 4.0
e 147 65 46.0
e 147 124 23.0
e 147 15 2.0
e 148 151 20.0
e 148 21 44.0
e 148 123 11.0
e 148 66 38.0
e 149 53 1.0
e 149 55 1.0
e 149 11 1.0
e 149 146 1.0
e 150 47 1.0
e 150 12 2.0
e 150 46 1.0
e 151 118 1.0
e 151 42 1.0
e 151 150 1.0
e 151 119 1.0
e 152 47 1.0
e 152 100 38.0
e 152 129 1.0
e 152 71 1.0
e 153 62 1.0
e 153 24 1.0
e 153 128 1.0
e 153 113 1.0
e 154 30 48.0
e 154 70 39.0
e 154 97 28.0
e 154 64 33.0
e 155 117 1.0
e 155 146 1.0
e 155 37 45.0
e 155 60 36.0
e 156 131 39.0
e 156 123 2.0
e 156 68 2.0
e 156 46 2.0
e 157 150 1.0
e 157 28 1.0
e 157 97 1.0
e 157 16 1.0
e 158 73 17.0
e 158 48 1.0
e 158 29 1.0
e 159 107 1.0
e 159 46 1.0
e 159 115 1.0
e 159 139 1.0
